NAME : covtype.-5106179.tour
COMMENT : Length = -5106179
COMMENT : Found by LKH [Keld Helsgaun] Fri Jul  2 10:21:14 2021
TYPE : TOUR
DIMENSION : 54
TOUR_SECTION
1
3
6
11
43
37
14
24
16
44
41
29
15
19
27
39
12
38
28
21
25
52
42
35
48
40
32
50
45
33
47
26
30
51
22
23
36
54
20
17
34
53
49
31
18
46
13
10
8
2
9
7
4
5
-1
EOF
